153995
73
72
71
64
63
57
58
59
60
41
40
34
39
33
55
56
62
61
38
36
37
18
17
11
12
13
14
15
16
10
9
32
35
74
8
7
6
5
20
19
31
30
29
26
25
21
22
23
1
2
3
4
24
75
0
46
45
44
48
47
69
68
67
50
49
52
53
54
42
43
28
27
51
66
65
70
